Solver command line: ['C:\\Program Files\\IBM\\ILOG\\CPLEX_Studio2211\\cplex\\bin\\x64_win64\\cplex.exe']


Welcome to IBM(R) ILOG(R) CPLEX(R) Interactive Optimizer 22.1.1.0
  with Simplex, Mixed Integer & Barrier Optimizers
5725-A06 5725-A29 5724-Y48 5724-Y49 5724-Y54 5724-Y55 5655-Y21
Copyright IBM Corp. 1988, 2022.  All Rights Reserved.

Type 'help' for a list of available commands.
Type 'help' followed by a command name for more
information on commands.

CPLEX> Logfile 'cplex.log' closed.
Logfile 'C:\Users\wangy\Documents\GitHub\re_optimization\result_site_specific\tmp4xfjdub7.cplex.log' open.
CPLEX> Problem 'C:\Users\wangy\Documents\GitHub\re_optimization\result_site_specific\tmpbwbmlkf6.pyomo.lp' read.
Read time = 0.31 sec. (9.13 ticks)
CPLEX> Problem name         : C:\Users\wangy\Documents\GitHub\re_optimization\result_site_specific\tmpbwbmlkf6.pyomo.lp
Objective sense      : Minimize
Variables            :   65769  [Nneg: 35068,  Free: 8792,  Binary: 9,
                                 Other: 21900]
Objective nonzeros   :      17
Linear constraints   :   87665  [Less: 46741,  Greater: 5,  Equal: 40919]
  Nonzeros           :  225090
  RHS nonzeros       :    3764

Variables            : Min LB: 0.000000         Max UB: 1.000000       
Objective nonzeros   : Min   : 1.000000         Max   : 1.000000       
Linear constraints   :
  Nonzeros           : Min   : 0.001461596      Max   : 100000.0       
  RHS nonzeros       : Min   : 0.1080000        Max   : 100000.0       
CPLEX> Version identifier: 22.1.1.0 | 2022-11-27 | 9160aff4d
Tried aggregator 3 times.
MIP Presolve eliminated 52669 rows and 32226 columns.
Aggregator did 10535 substitutions.
Reduced MIP has 24461 rows, 23008 columns, and 73454 nonzeros.
Reduced MIP has 5 binaries, 0 generals, 0 SOSs, and 0 indicators.
Presolve time = 0.20 sec. (227.00 ticks)
Found incumbent of value 328493.380384 after 0.30 sec. (327.70 ticks)
Probing time = 0.00 sec. (1.29 ticks)
Tried aggregator 1 time.
Detecting symmetries...
Reduced MIP has 24461 rows, 23008 columns, and 73454 nonzeros.
Reduced MIP has 5 binaries, 0 generals, 0 SOSs, and 0 indicators.
Presolve time = 0.05 sec. (47.12 ticks)
Probing time = 0.00 sec. (1.19 ticks)
MIP emphasis: balance optimality and feasibility.
MIP search method: dynamic search.
Parallel mode: deterministic, using up to 16 threads.
Root relaxation solution time = 1.34 sec. (958.97 ticks)

        Nodes                                         Cuts/
   Node  Left     Objective  IInf  Best Integer    Best Bound    ItCnt     Gap

*     0+    0                       328493.3804   -13954.3259           104.25%
      0     0    10647.6709     1   328493.3804    10647.6709       73   96.76%
*     0+    0                        12252.3237    10647.6709            13.10%
*     0+    0                        11270.1458    10647.6709             5.52%
      0     0        cutoff          11270.1458                    768    0.00%
Elapsed time = 2.01 sec. (1848.43 ticks, tree = 0.01 MB, solutions = 3)

Root node processing (before b&c):
  Real time             =    2.03 sec. (1851.62 ticks)
Parallel b&c, 16 threads:
  Real time             =    0.00 sec. (0.00 ticks)
  Sync time (average)   =    0.00 sec.
  Wait time (average)   =    0.00 sec.
                          ------------
Total (root+branch&cut) =    2.03 sec. (1851.62 ticks)

Solution pool: 3 solutions saved.

MIP - Integer optimal solution:  Objective =  1.1270145762e+04
Solution time =    2.03 sec.  Iterations = 768  Nodes = 0
Deterministic time = 1851.80 ticks  (911.77 ticks/sec)

CPLEX> Incumbent solution written to file 'C:\Users\wangy\Documents\GitHub\re_optimization\result_site_specific\tmp4idawbof.cplex.sol'.
CPLEX> 
